17970.15,38.75,44.02
14273.89,48.79,55.42
15896.26,43.81,49.77
15007.01,46.41,52.72
13953.72,49.91,56.7
15031.29,46.33,52.63
13835.72,50.33,57.18
15472.45,45.01,51.13
15090.64,46.15,52.42
15817.86,44.03,50.01
16773.71,41.52,47.16
14417.79,48.3,54.87
14168.65,49.15,55.84
15211.82,45.78,52.01
15989.61,43.55,49.48
16718.85,41.65,47.32
16134.17,43.16,49.03
15904.8,43.79,49.74
16416.11,42.42,48.19
16321.53,42.67,48.47
